100
32
2
11
22
4
3
26
6
19
1
15
23
10
19
3
5
8
8
11
14
22
6
18
18
18
6
13
25
19
15
14
28
15
17
16
4
10
29
18
12
16
18
25
6
19
5
5
17
20
2
2
3
16
2
26
12
17
4
2
10
2
18
28
20
11
7
9
20
18
21
8
3
1
3
21
28
2
24
3
23
11
13
26
25
5
11
24
1
2
9
6
4
13
13
5
8
12
16
6
6
14